p cnf 144 1872
1 13 25 37 49 61 73 85 97 109 121 133 0
2 14 26 38 50 62 74 86 98 110 122 134 0
3 15 27 39 51 63 75 87 99 111 123 135 0
4 16 28 40 52 64 76 88 100 112 124 136 0
5 17 29 41 53 65 77 89 101 113 125 137 0
6 18 30 42 54 66 78 90 102 114 126 138 0
7 19 31 43 55 67 79 91 103 115 127 139 0
8 20 32 44 56 68 80 92 104 116 128 140 0
9 21 33 45 57 69 81 93 105 117 129 141 0
10 22 34 46 58 70 82 94 106 118 130 142 0
11 23 35 47 59 71 83 95 107 119 131 143 0
12 24 36 48 60 72 84 96 108 120 132 144 0
-1 -13 0
-1 -25 0
-1 -37 0
-1 -49 0
-1 -61 0
-1 -73 0
-1 -85 0
-1 -97 0
-1 -109 0
-1 -121 0
-1 -133 0
-13 -25 0
-13 -37 0
-13 -49 0
-13 -61 0
-13 -73 0
-13 -85 0
-13 -97 0
-13 -109 0
-13 -121 0
-13 -133 0
-25 -37 0
-25 -49 0
-25 -61 0
-25 -73 0
-25 -85 0
-25 -97 0
-25 -109 0
-25 -121 0
-25 -133 0
-37 -49 0
-37 -61 0
-37 -73 0
-37 -85 0
-37 -97 0
-37 -109 0
-37 -121 0
-37 -133 0
-49 -61 0
-49 -73 0
-49 -85 0
-49 -97 0
-49 -109 0
-49 -121 0
-49 -133 0
-61 -73 0
-61 -85 0
-61 -97 0
-61 -109 0
-61 -121 0
-61 -133 0
-73 -85 0
-73 -97 0
-73 -109 0
-73 -121 0
-73 -133 0
-85 -97 0
-85 -109 0
-85 -121 0
-85 -133 0
-97 -109 0
-97 -121 0
-97 -133 0
-109 -121 0
-109 -133 0
-121 -133 0
-2 -14 0
-2 -26 0
-2 -38 0
-2 -50 0
-2 -62 0
-2 -74 0
-2 -86 0
-2 -98 0
-2 -110 0
-2 -122 0
-2 -134 0
-14 -26 0
-14 -38 0
-14 -50 0
-14 -62 0
-14 -74 0
-14 -86 0
-14 -98 0
-14 -110 0
-14 -122 0
-14 -134 0
-26 -38 0
-26 -50 0
-26 -62 0
-26 -74 0
-26 -86 0
-26 -98 0
-26 -110 0
-26 -122 0
-26 -134 0
-38 -50 0
-38 -62 0
-38 -74 0
-38 -86 0
-38 -98 0
-38 -110 0
-38 -122 0
-38 -134 0
-50 -62 0
-50 -74 0
-50 -86 0
-50 -98 0
-50 -110 0
-50 -122 0
-50 -134 0
-62 -74 0
-62 -86 0
-62 -98 0
-62 -110 0
-62 -122 0
-62 -134 0
-74 -86 0
-74 -98 0
-74 -110 0
-74 -122 0
-74 -134 0
-86 -98 0
-86 -110 0
-86 -122 0
-86 -134 0
-98 -110 0
-98 -122 0
-98 -134 0
-110 -122 0
-110 -134 0
-122 -134 0
-3 -15 0
-3 -27 0
-3 -39 0
-3 -51 0
-3 -63 0
-3 -75 0
-3 -87 0
-3 -99 0
-3 -111 0
-3 -123 0
-3 -135 0
-15 -27 0
-15 -39 0
-15 -51 0
-15 -63 0
-15 -75 0
-15 -87 0
-15 -99 0
-15 -111 0
-15 -123 0
-15 -135 0
-27 -39 0
-27 -51 0
-27 -63 0
-27 -75 0
-27 -87 0
-27 -99 0
-27 -111 0
-27 -123 0
-27 -135 0
-39 -51 0
-39 -63 0
-39 -75 0
-39 -87 0
-39 -99 0
-39 -111 0
-39 -123 0
-39 -135 0
-51 -63 0
-51 -75 0
-51 -87 0
-51 -99 0
-51 -111 0
-51 -123 0
-51 -135 0
-63 -75 0
-63 -87 0
-63 -99 0
-63 -111 0
-63 -123 0
-63 -135 0
-75 -87 0
-75 -99 0
-75 -111 0
-75 -123 0
-75 -135 0
-87 -99 0
-87 -111 0
-87 -123 0
-87 -135 0
-99 -111 0
-99 -123 0
-99 -135 0
-111 -123 0
-111 -135 0
-123 -135 0
-4 -16 0
-4 -28 0
-4 -40 0
-4 -52 0
-4 -64 0
-4 -76 0
-4 -88 0
-4 -100 0
-4 -112 0
-4 -124 0
-4 -136 0
-16 -28 0
-16 -40 0
-16 -52 0
-16 -64 0
-16 -76 0
-16 -88 0
-16 -100 0
-16 -112 0
-16 -124 0
-16 -136 0
-28 -40 0
-28 -52 0
-28 -64 0
-28 -76 0
-28 -88 0
-28 -100 0
-28 -112 0
-28 -124 0
-28 -136 0
-40 -52 0
-40 -64 0
-40 -76 0
-40 -88 0
-40 -100 0
-40 -112 0
-40 -124 0
-40 -136 0
-52 -64 0
-52 -76 0
-52 -88 0
-52 -100 0
-52 -112 0
-52 -124 0
-52 -136 0
-64 -76 0
-64 -88 0
-64 -100 0
-64 -112 0
-64 -124 0
-64 -136 0
-76 -88 0
-76 -100 0
-76 -112 0
-76 -124 0
-76 -136 0
-88 -100 0
-88 -112 0
-88 -124 0
-88 -136 0
-100 -112 0
-100 -124 0
-100 -136 0
-112 -124 0
-112 -136 0
-124 -136 0
-5 -17 0
-5 -29 0
-5 -41 0
-5 -53 0
-5 -65 0
-5 -77 0
-5 -89 0
-5 -101 0
-5 -113 0
-5 -125 0
-5 -137 0
-17 -29 0
-17 -41 0
-17 -53 0
-17 -65 0
-17 -77 0
-17 -89 0
-17 -101 0
-17 -113 0
-17 -125 0
-17 -137 0
-29 -41 0
-29 -53 0
-29 -65 0
-29 -77 0
-29 -89 0
-29 -101 0
-29 -113 0
-29 -125 0
-29 -137 0
-41 -53 0
-41 -65 0
-41 -77 0
-41 -89 0
-41 -101 0
-41 -113 0
-41 -125 0
-41 -137 0
-53 -65 0
-53 -77 0
-53 -89 0
-53 -101 0
-53 -113 0
-53 -125 0
-53 -137 0
-65 -77 0
-65 -89 0
-65 -101 0
-65 -113 0
-65 -125 0
-65 -137 0
-77 -89 0
-77 -101 0
-77 -113 0
-77 -125 0
-77 -137 0
-89 -101 0
-89 -113 0
-89 -125 0
-89 -137 0
-101 -113 0
-101 -125 0
-101 -137 0
-113 -125 0
-113 -137 0
-125 -137 0
-6 -18 0
-6 -30 0
-6 -42 0
-6 -54 0
-6 -66 0
-6 -78 0
-6 -90 0
-6 -102 0
-6 -114 0
-6 -126 0
-6 -138 0
-18 -30 0
-18 -42 0
-18 -54 0
-18 -66 0
-18 -78 0
-18 -90 0
-18 -102 0
-18 -114 0
-18 -126 0
-18 -138 0
-30 -42 0
-30 -54 0
-30 -66 0
-30 -78 0
-30 -90 0
-30 -102 0
-30 -114 0
-30 -126 0
-30 -138 0
-42 -54 0
-42 -66 0
-42 -78 0
-42 -90 0
-42 -102 0
-42 -114 0
-42 -126 0
-42 -138 0
-54 -66 0
-54 -78 0
-54 -90 0
-54 -102 0
-54 -114 0
-54 -126 0
-54 -138 0
-66 -78 0
-66 -90 0
-66 -102 0
-66 -114 0
-66 -126 0
-66 -138 0
-78 -90 0
-78 -102 0
-78 -114 0
-78 -126 0
-78 -138 0
-90 -102 0
-90 -114 0
-90 -126 0
-90 -138 0
-102 -114 0
-102 -126 0
-102 -138 0
-114 -126 0
-114 -138 0
-126 -138 0
-7 -19 0
-7 -31 0
-7 -43 0
-7 -55 0
-7 -67 0
-7 -79 0
-7 -91 0
-7 -103 0
-7 -115 0
-7 -127 0
-7 -139 0
-19 -31 0
-19 -43 0
-19 -55 0
-19 -67 0
-19 -79 0
-19 -91 0
-19 -103 0
-19 -115 0
-19 -127 0
-19 -139 0
-31 -43 0
-31 -55 0
-31 -67 0
-31 -79 0
-31 -91 0
-31 -103 0
-31 -115 0
-31 -127 0
-31 -139 0
-43 -55 0
-43 -67 0
-43 -79 0
-43 -91 0
-43 -103 0
-43 -115 0
-43 -127 0
-43 -139 0
-55 -67 0
-55 -79 0
-55 -91 0
-55 -103 0
-55 -115 0
-55 -127 0
-55 -139 0
-67 -79 0
-67 -91 0
-67 -103 0
-67 -115 0
-67 -127 0
-67 -139 0
-79 -91 0
-79 -103 0
-79 -115 0
-79 -127 0
-79 -139 0
-91 -103 0
-91 -115 0
-91 -127 0
-91 -139 0
-103 -115 0
-103 -127 0
-103 -139 0
-115 -127 0
-115 -139 0
-127 -139 0
-8 -20 0
-8 -32 0
-8 -44 0
-8 -56 0
-8 -68 0
-8 -80 0
-8 -92 0
-8 -104 0
-8 -116 0
-8 -128 0
-8 -140 0
-20 -32 0
-20 -44 0
-20 -56 0
-20 -68 0
-20 -80 0
-20 -92 0
-20 -104 0
-20 -116 0
-20 -128 0
-20 -140 0
-32 -44 0
-32 -56 0
-32 -68 0
-32 -80 0
-32 -92 0
-32 -104 0
-32 -116 0
-32 -128 0
-32 -140 0
-44 -56 0
-44 -68 0
-44 -80 0
-44 -92 0
-44 -104 0
-44 -116 0
-44 -128 0
-44 -140 0
-56 -68 0
-56 -80 0
-56 -92 0
-56 -104 0
-56 -116 0
-56 -128 0
-56 -140 0
-68 -80 0
-68 -92 0
-68 -104 0
-68 -116 0
-68 -128 0
-68 -140 0
-80 -92 0
-80 -104 0
-80 -116 0
-80 -128 0
-80 -140 0
-92 -104 0
-92 -116 0
-92 -128 0
-92 -140 0
-104 -116 0
-104 -128 0
-104 -140 0
-116 -128 0
-116 -140 0
-128 -140 0
-9 -21 0
-9 -33 0
-9 -45 0
-9 -57 0
-9 -69 0
-9 -81 0
-9 -93 0
-9 -105 0
-9 -117 0
-9 -129 0
-9 -141 0
-21 -33 0
-21 -45 0
-21 -57 0
-21 -69 0
-21 -81 0
-21 -93 0
-21 -105 0
-21 -117 0
-21 -129 0
-21 -141 0
-33 -45 0
-33 -57 0
-33 -69 0
-33 -81 0
-33 -93 0
-33 -105 0
-33 -117 0
-33 -129 0
-33 -141 0
-45 -57 0
-45 -69 0
-45 -81 0
-45 -93 0
-45 -105 0
-45 -117 0
-45 -129 0
-45 -141 0
-57 -69 0
-57 -81 0
-57 -93 0
-57 -105 0
-57 -117 0
-57 -129 0
-57 -141 0
-69 -81 0
-69 -93 0
-69 -105 0
-69 -117 0
-69 -129 0
-69 -141 0
-81 -93 0
-81 -105 0
-81 -117 0
-81 -129 0
-81 -141 0
-93 -105 0
-93 -117 0
-93 -129 0
-93 -141 0
-105 -117 0
-105 -129 0
-105 -141 0
-117 -129 0
-117 -141 0
-129 -141 0
-10 -22 0
-10 -34 0
-10 -46 0
-10 -58 0
-10 -70 0
-10 -82 0
-10 -94 0
-10 -106 0
-10 -118 0
-10 -130 0
-10 -142 0
-22 -34 0
-22 -46 0
-22 -58 0
-22 -70 0
-22 -82 0
-22 -94 0
-22 -106 0
-22 -118 0
-22 -130 0
-22 -142 0
-34 -46 0
-34 -58 0
-34 -70 0
-34 -82 0
-34 -94 0
-34 -106 0
-34 -118 0
-34 -130 0
-34 -142 0
-46 -58 0
-46 -70 0
-46 -82 0
-46 -94 0
-46 -106 0
-46 -118 0
-46 -130 0
-46 -142 0
-58 -70 0
-58 -82 0
-58 -94 0
-58 -106 0
-58 -118 0
-58 -130 0
-58 -142 0
-70 -82 0
-70 -94 0
-70 -106 0
-70 -118 0
-70 -130 0
-70 -142 0
-82 -94 0
-82 -106 0
-82 -118 0
-82 -130 0
-82 -142 0
-94 -106 0
-94 -118 0
-94 -130 0
-94 -142 0
-106 -118 0
-106 -130 0
-106 -142 0
-118 -130 0
-118 -142 0
-130 -142 0
-11 -23 0
-11 -35 0
-11 -47 0
-11 -59 0
-11 -71 0
-11 -83 0
-11 -95 0
-11 -107 0
-11 -119 0
-11 -131 0
-11 -143 0
-23 -35 0
-23 -47 0
-23 -59 0
-23 -71 0
-23 -83 0
-23 -95 0
-23 -107 0
-23 -119 0
-23 -131 0
-23 -143 0
-35 -47 0
-35 -59 0
-35 -71 0
-35 -83 0
-35 -95 0
-35 -107 0
-35 -119 0
-35 -131 0
-35 -143 0
-47 -59 0
-47 -71 0
-47 -83 0
-47 -95 0
-47 -107 0
-47 -119 0
-47 -131 0
-47 -143 0
-59 -71 0
-59 -83 0
-59 -95 0
-59 -107 0
-59 -119 0
-59 -131 0
-59 -143 0
-71 -83 0
-71 -95 0
-71 -107 0
-71 -119 0
-71 -131 0
-71 -143 0
-83 -95 0
-83 -107 0
-83 -119 0
-83 -131 0
-83 -143 0
-95 -107 0
-95 -119 0
-95 -131 0
-95 -143 0
-107 -119 0
-107 -131 0
-107 -143 0
-119 -131 0
-119 -143 0
-131 -143 0
-12 -24 0
-12 -36 0
-12 -48 0
-12 -60 0
-12 -72 0
-12 -84 0
-12 -96 0
-12 -108 0
-12 -120 0
-12 -132 0
-12 -144 0
-24 -36 0
-24 -48 0
-24 -60 0
-24 -72 0
-24 -84 0
-24 -96 0
-24 -108 0
-24 -120 0
-24 -132 0
-24 -144 0
-36 -48 0
-36 -60 0
-36 -72 0
-36 -84 0
-36 -96 0
-36 -108 0
-36 -120 0
-36 -132 0
-36 -144 0
-48 -60 0
-48 -72 0
-48 -84 0
-48 -96 0
-48 -108 0
-48 -120 0
-48 -132 0
-48 -144 0
-60 -72 0
-60 -84 0
-60 -96 0
-60 -108 0
-60 -120 0
-60 -132 0
-60 -144 0
-72 -84 0
-72 -96 0
-72 -108 0
-72 -120 0
-72 -132 0
-72 -144 0
-84 -96 0
-84 -108 0
-84 -120 0
-84 -132 0
-84 -144 0
-96 -108 0
-96 -120 0
-96 -132 0
-96 -144 0
-108 -120 0
-108 -132 0
-108 -144 0
-120 -132 0
-120 -144 0
-132 -144 0
1 2 3 4 5 6 7 8 9 10 11 12 0
13 14 15 16 17 18 19 20 21 22 23 24 0
25 26 27 28 29 30 31 32 33 34 35 36 0
37 38 39 40 41 42 43 44 45 46 47 48 0
49 50 51 52 53 54 55 56 57 58 59 60 0
61 62 63 64 65 66 67 68 69 70 71 72 0
73 74 75 76 77 78 79 80 81 82 83 84 0
85 86 87 88 89 90 91 92 93 94 95 96 0
97 98 99 100 101 102 103 104 105 106 107 108 0
109 110 111 112 113 114 115 116 117 118 119 120 0
121 122 123 124 125 126 127 128 129 130 131 132 0
133 134 135 136 137 138 139 140 141 142 143 144 0
-1 -50 0
-2 -49 0
-2 -51 0
-3 -50 0
-3 -52 0
-4 -51 0
-4 -53 0
-5 -52 0
-5 -54 0
-6 -53 0
-6 -55 0
-7 -54 0
-7 -56 0
-8 -55 0
-8 -57 0
-9 -56 0
-9 -58 0
-10 -57 0
-10 -59 0
-11 -58 0
-11 -60 0
-12 -59 0
-1 -62 0
-2 -61 0
-2 -63 0
-3 -62 0
-3 -64 0
-4 -63 0
-4 -65 0
-5 -64 0
-5 -66 0
-6 -65 0
-6 -67 0
-7 -66 0
-7 -68 0
-8 -67 0
-8 -69 0
-9 -68 0
-9 -70 0
-10 -69 0
-10 -71 0
-11 -70 0
-11 -72 0
-12 -71 0
-1 -74 0
-2 -73 0
-2 -75 0
-3 -74 0
-3 -76 0
-4 -75 0
-4 -77 0
-5 -76 0
-5 -78 0
-6 -77 0
-6 -79 0
-7 -78 0
-7 -80 0
-8 -79 0
-8 -81 0
-9 -80 0
-9 -82 0
-10 -81 0
-10 -83 0
-11 -82 0
-11 -84 0
-12 -83 0
-1 -86 0
-2 -85 0
-2 -87 0
-3 -86 0
-3 -88 0
-4 -87 0
-4 -89 0
-5 -88 0
-5 -90 0
-6 -89 0
-6 -91 0
-7 -90 0
-7 -92 0
-8 -91 0
-8 -93 0
-9 -92 0
-9 -94 0
-10 -93 0
-10 -95 0
-11 -94 0
-11 -96 0
-12 -95 0
-1 -98 0
-2 -97 0
-2 -99 0
-3 -98 0
-3 -100 0
-4 -99 0
-4 -101 0
-5 -100 0
-5 -102 0
-6 -101 0
-6 -103 0
-7 -102 0
-7 -104 0
-8 -103 0
-8 -105 0
-9 -104 0
-9 -106 0
-10 -105 0
-10 -107 0
-11 -106 0
-11 -108 0
-12 -107 0
-1 -110 0
-2 -109 0
-2 -111 0
-3 -110 0
-3 -112 0
-4 -111 0
-4 -113 0
-5 -112 0
-5 -114 0
-6 -113 0
-6 -115 0
-7 -114 0
-7 -116 0
-8 -115 0
-8 -117 0
-9 -116 0
-9 -118 0
-10 -117 0
-10 -119 0
-11 -118 0
-11 -120 0
-12 -119 0
-1 -122 0
-2 -121 0
-2 -123 0
-3 -122 0
-3 -124 0
-4 -123 0
-4 -125 0
-5 -124 0
-5 -126 0
-6 -125 0
-6 -127 0
-7 -126 0
-7 -128 0
-8 -127 0
-8 -129 0
-9 -128 0
-9 -130 0
-10 -129 0
-10 -131 0
-11 -130 0
-11 -132 0
-12 -131 0
-1 -134 0
-2 -133 0
-2 -135 0
-3 -134 0
-3 -136 0
-4 -135 0
-4 -137 0
-5 -136 0
-5 -138 0
-6 -137 0
-6 -139 0
-7 -138 0
-7 -140 0
-8 -139 0
-8 -141 0
-9 -140 0
-9 -142 0
-10 -141 0
-10 -143 0
-11 -142 0
-11 -144 0
-12 -143 0
-13 -38 0
-14 -37 0
-14 -39 0
-15 -38 0
-15 -40 0
-16 -39 0
-16 -41 0
-17 -40 0
-17 -42 0
-18 -41 0
-18 -43 0
-19 -42 0
-19 -44 0
-20 -43 0
-20 -45 0
-21 -44 0
-21 -46 0
-22 -45 0
-22 -47 0
-23 -46 0
-23 -48 0
-24 -47 0
-13 -62 0
-14 -61 0
-14 -63 0
-15 -62 0
-15 -64 0
-16 -63 0
-16 -65 0
-17 -64 0
-17 -66 0
-18 -65 0
-18 -67 0
-19 -66 0
-19 -68 0
-20 -67 0
-20 -69 0
-21 -68 0
-21 -70 0
-22 -69 0
-22 -71 0
-23 -70 0
-23 -72 0
-24 -71 0
-13 -74 0
-14 -73 0
-14 -75 0
-15 -74 0
-15 -76 0
-16 -75 0
-16 -77 0
-17 -76 0
-17 -78 0
-18 -77 0
-18 -79 0
-19 -78 0
-19 -80 0
-20 -79 0
-20 -81 0
-21 -80 0
-21 -82 0
-22 -81 0
-22 -83 0
-23 -82 0
-23 -84 0
-24 -83 0
-13 -86 0
-14 -85 0
-14 -87 0
-15 -86 0
-15 -88 0
-16 -87 0
-16 -89 0
-17 -88 0
-17 -90 0
-18 -89 0
-18 -91 0
-19 -90 0
-19 -92 0
-20 -91 0
-20 -93 0
-21 -92 0
-21 -94 0
-22 -93 0
-22 -95 0
-23 -94 0
-23 -96 0
-24 -95 0
-13 -98 0
-14 -97 0
-14 -99 0
-15 -98 0
-15 -100 0
-16 -99 0
-16 -101 0
-17 -100 0
-17 -102 0
-18 -101 0
-18 -103 0
-19 -102 0
-19 -104 0
-20 -103 0
-20 -105 0
-21 -104 0
-21 -106 0
-22 -105 0
-22 -107 0
-23 -106 0
-23 -108 0
-24 -107 0
-13 -110 0
-14 -109 0
-14 -111 0
-15 -110 0
-15 -112 0
-16 -111 0
-16 -113 0
-17 -112 0
-17 -114 0
-18 -113 0
-18 -115 0
-19 -114 0
-19 -116 0
-20 -115 0
-20 -117 0
-21 -116 0
-21 -118 0
-22 -117 0
-22 -119 0
-23 -118 0
-23 -120 0
-24 -119 0
-13 -122 0
-14 -121 0
-14 -123 0
-15 -122 0
-15 -124 0
-16 -123 0
-16 -125 0
-17 -124 0
-17 -126 0
-18 -125 0
-18 -127 0
-19 -126 0
-19 -128 0
-20 -127 0
-20 -129 0
-21 -128 0
-21 -130 0
-22 -129 0
-22 -131 0
-23 -130 0
-23 -132 0
-24 -131 0
-13 -134 0
-14 -133 0
-14 -135 0
-15 -134 0
-15 -136 0
-16 -135 0
-16 -137 0
-17 -136 0
-17 -138 0
-18 -137 0
-18 -139 0
-19 -138 0
-19 -140 0
-20 -139 0
-20 -141 0
-21 -140 0
-21 -142 0
-22 -141 0
-22 -143 0
-23 -142 0
-23 -144 0
-24 -143 0
-25 -38 0
-26 -37 0
-26 -39 0
-27 -38 0
-27 -40 0
-28 -39 0
-28 -41 0
-29 -40 0
-29 -42 0
-30 -41 0
-30 -43 0
-31 -42 0
-31 -44 0
-32 -43 0
-32 -45 0
-33 -44 0
-33 -46 0
-34 -45 0
-34 -47 0
-35 -46 0
-35 -48 0
-36 -47 0
-25 -50 0
-26 -49 0
-26 -51 0
-27 -50 0
-27 -52 0
-28 -51 0
-28 -53 0
-29 -52 0
-29 -54 0
-30 -53 0
-30 -55 0
-31 -54 0
-31 -56 0
-32 -55 0
-32 -57 0
-33 -56 0
-33 -58 0
-34 -57 0
-34 -59 0
-35 -58 0
-35 -60 0
-36 -59 0
-25 -74 0
-26 -73 0
-26 -75 0
-27 -74 0
-27 -76 0
-28 -75 0
-28 -77 0
-29 -76 0
-29 -78 0
-30 -77 0
-30 -79 0
-31 -78 0
-31 -80 0
-32 -79 0
-32 -81 0
-33 -80 0
-33 -82 0
-34 -81 0
-34 -83 0
-35 -82 0
-35 -84 0
-36 -83 0
-25 -86 0
-26 -85 0
-26 -87 0
-27 -86 0
-27 -88 0
-28 -87 0
-28 -89 0
-29 -88 0
-29 -90 0
-30 -89 0
-30 -91 0
-31 -90 0
-31 -92 0
-32 -91 0
-32 -93 0
-33 -92 0
-33 -94 0
-34 -93 0
-34 -95 0
-35 -94 0
-35 -96 0
-36 -95 0
-25 -98 0
-26 -97 0
-26 -99 0
-27 -98 0
-27 -100 0
-28 -99 0
-28 -101 0
-29 -100 0
-29 -102 0
-30 -101 0
-30 -103 0
-31 -102 0
-31 -104 0
-32 -103 0
-32 -105 0
-33 -104 0
-33 -106 0
-34 -105 0
-34 -107 0
-35 -106 0
-35 -108 0
-36 -107 0
-25 -110 0
-26 -109 0
-26 -111 0
-27 -110 0
-27 -112 0
-28 -111 0
-28 -113 0
-29 -112 0
-29 -114 0
-30 -113 0
-30 -115 0
-31 -114 0
-31 -116 0
-32 -115 0
-32 -117 0
-33 -116 0
-33 -118 0
-34 -117 0
-34 -119 0
-35 -118 0
-35 -120 0
-36 -119 0
-25 -122 0
-26 -121 0
-26 -123 0
-27 -122 0
-27 -124 0
-28 -123 0
-28 -125 0
-29 -124 0
-29 -126 0
-30 -125 0
-30 -127 0
-31 -126 0
-31 -128 0
-32 -127 0
-32 -129 0
-33 -128 0
-33 -130 0
-34 -129 0
-34 -131 0
-35 -130 0
-35 -132 0
-36 -131 0
-25 -134 0
-26 -133 0
-26 -135 0
-27 -134 0
-27 -136 0
-28 -135 0
-28 -137 0
-29 -136 0
-29 -138 0
-30 -137 0
-30 -139 0
-31 -138 0
-31 -140 0
-32 -139 0
-32 -141 0
-33 -140 0
-33 -142 0
-34 -141 0
-34 -143 0
-35 -142 0
-35 -144 0
-36 -143 0
-37 -50 0
-38 -49 0
-38 -51 0
-39 -50 0
-39 -52 0
-40 -51 0
-40 -53 0
-41 -52 0
-41 -54 0
-42 -53 0
-42 -55 0
-43 -54 0
-43 -56 0
-44 -55 0
-44 -57 0
-45 -56 0
-45 -58 0
-46 -57 0
-46 -59 0
-47 -58 0
-47 -60 0
-48 -59 0
-37 -62 0
-38 -61 0
-38 -63 0
-39 -62 0
-39 -64 0
-40 -63 0
-40 -65 0
-41 -64 0
-41 -66 0
-42 -65 0
-42 -67 0
-43 -66 0
-43 -68 0
-44 -67 0
-44 -69 0
-45 -68 0
-45 -70 0
-46 -69 0
-46 -71 0
-47 -70 0
-47 -72 0
-48 -71 0
-37 -86 0
-38 -85 0
-38 -87 0
-39 -86 0
-39 -88 0
-40 -87 0
-40 -89 0
-41 -88 0
-41 -90 0
-42 -89 0
-42 -91 0
-43 -90 0
-43 -92 0
-44 -91 0
-44 -93 0
-45 -92 0
-45 -94 0
-46 -93 0
-46 -95 0
-47 -94 0
-47 -96 0
-48 -95 0
-37 -98 0
-38 -97 0
-38 -99 0
-39 -98 0
-39 -100 0
-40 -99 0
-40 -101 0
-41 -100 0
-41 -102 0
-42 -101 0
-42 -103 0
-43 -102 0
-43 -104 0
-44 -103 0
-44 -105 0
-45 -104 0
-45 -106 0
-46 -105 0
-46 -107 0
-47 -106 0
-47 -108 0
-48 -107 0
-37 -110 0
-38 -109 0
-38 -111 0
-39 -110 0
-39 -112 0
-40 -111 0
-40 -113 0
-41 -112 0
-41 -114 0
-42 -113 0
-42 -115 0
-43 -114 0
-43 -116 0
-44 -115 0
-44 -117 0
-45 -116 0
-45 -118 0
-46 -117 0
-46 -119 0
-47 -118 0
-47 -120 0
-48 -119 0
-37 -122 0
-38 -121 0
-38 -123 0
-39 -122 0
-39 -124 0
-40 -123 0
-40 -125 0
-41 -124 0
-41 -126 0
-42 -125 0
-42 -127 0
-43 -126 0
-43 -128 0
-44 -127 0
-44 -129 0
-45 -128 0
-45 -130 0
-46 -129 0
-46 -131 0
-47 -130 0
-47 -132 0
-48 -131 0
-49 -62 0
-50 -61 0
-50 -63 0
-51 -62 0
-51 -64 0
-52 -63 0
-52 -65 0
-53 -64 0
-53 -66 0
-54 -65 0
-54 -67 0
-55 -66 0
-55 -68 0
-56 -67 0
-56 -69 0
-57 -68 0
-57 -70 0
-58 -69 0
-58 -71 0
-59 -70 0
-59 -72 0
-60 -71 0
-49 -74 0
-50 -73 0
-50 -75 0
-51 -74 0
-51 -76 0
-52 -75 0
-52 -77 0
-53 -76 0
-53 -78 0
-54 -77 0
-54 -79 0
-55 -78 0
-55 -80 0
-56 -79 0
-56 -81 0
-57 -80 0
-57 -82 0
-58 -81 0
-58 -83 0
-59 -82 0
-59 -84 0
-60 -83 0
-49 -110 0
-50 -109 0
-50 -111 0
-51 -110 0
-51 -112 0
-52 -111 0
-52 -113 0
-53 -112 0
-53 -114 0
-54 -113 0
-54 -115 0
-55 -114 0
-55 -116 0
-56 -115 0
-56 -117 0
-57 -116 0
-57 -118 0
-58 -117 0
-58 -119 0
-59 -118 0
-59 -120 0
-60 -119 0
-49 -122 0
-50 -121 0
-50 -123 0
-51 -122 0
-51 -124 0
-52 -123 0
-52 -125 0
-53 -124 0
-53 -126 0
-54 -125 0
-54 -127 0
-55 -126 0
-55 -128 0
-56 -127 0
-56 -129 0
-57 -128 0
-57 -130 0
-58 -129 0
-58 -131 0
-59 -130 0
-59 -132 0
-60 -131 0
-49 -134 0
-50 -133 0
-50 -135 0
-51 -134 0
-51 -136 0
-52 -135 0
-52 -137 0
-53 -136 0
-53 -138 0
-54 -137 0
-54 -139 0
-55 -138 0
-55 -140 0
-56 -139 0
-56 -141 0
-57 -140 0
-57 -142 0
-58 -141 0
-58 -143 0
-59 -142 0
-59 -144 0
-60 -143 0
-61 -74 0
-62 -73 0
-62 -75 0
-63 -74 0
-63 -76 0
-64 -75 0
-64 -77 0
-65 -76 0
-65 -78 0
-66 -77 0
-66 -79 0
-67 -78 0
-67 -80 0
-68 -79 0
-68 -81 0
-69 -80 0
-69 -82 0
-70 -81 0
-70 -83 0
-71 -82 0
-71 -84 0
-72 -83 0
-61 -86 0
-62 -85 0
-62 -87 0
-63 -86 0
-63 -88 0
-64 -87 0
-64 -89 0
-65 -88 0
-65 -90 0
-66 -89 0
-66 -91 0
-67 -90 0
-67 -92 0
-68 -91 0
-68 -93 0
-69 -92 0
-69 -94 0
-70 -93 0
-70 -95 0
-71 -94 0
-71 -96 0
-72 -95 0
-61 -98 0
-62 -97 0
-62 -99 0
-63 -98 0
-63 -100 0
-64 -99 0
-64 -101 0
-65 -100 0
-65 -102 0
-66 -101 0
-66 -103 0
-67 -102 0
-67 -104 0
-68 -103 0
-68 -105 0
-69 -104 0
-69 -106 0
-70 -105 0
-70 -107 0
-71 -106 0
-71 -108 0
-72 -107 0
-61 -134 0
-62 -133 0
-62 -135 0
-63 -134 0
-63 -136 0
-64 -135 0
-64 -137 0
-65 -136 0
-65 -138 0
-66 -137 0
-66 -139 0
-67 -138 0
-67 -140 0
-68 -139 0
-68 -141 0
-69 -140 0
-69 -142 0
-70 -141 0
-70 -143 0
-71 -142 0
-71 -144 0
-72 -143 0
-73 -98 0
-74 -97 0
-74 -99 0
-75 -98 0
-75 -100 0
-76 -99 0
-76 -101 0
-77 -100 0
-77 -102 0
-78 -101 0
-78 -103 0
-79 -102 0
-79 -104 0
-80 -103 0
-80 -105 0
-81 -104 0
-81 -106 0
-82 -105 0
-82 -107 0
-83 -106 0
-83 -108 0
-84 -107 0
-73 -110 0
-74 -109 0
-74 -111 0
-75 -110 0
-75 -112 0
-76 -111 0
-76 -113 0
-77 -112 0
-77 -114 0
-78 -113 0
-78 -115 0
-79 -114 0
-79 -116 0
-80 -115 0
-80 -117 0
-81 -116 0
-81 -118 0
-82 -117 0
-82 -119 0
-83 -118 0
-83 -120 0
-84 -119 0
-73 -122 0
-74 -121 0
-74 -123 0
-75 -122 0
-75 -124 0
-76 -123 0
-76 -125 0
-77 -124 0
-77 -126 0
-78 -125 0
-78 -127 0
-79 -126 0
-79 -128 0
-80 -127 0
-80 -129 0
-81 -128 0
-81 -130 0
-82 -129 0
-82 -131 0
-83 -130 0
-83 -132 0
-84 -131 0
-85 -110 0
-86 -109 0
-86 -111 0
-87 -110 0
-87 -112 0
-88 -111 0
-88 -113 0
-89 -112 0
-89 -114 0
-90 -113 0
-90 -115 0
-91 -114 0
-91 -116 0
-92 -115 0
-92 -117 0
-93 -116 0
-93 -118 0
-94 -117 0
-94 -119 0
-95 -118 0
-95 -120 0
-96 -119 0
-85 -122 0
-86 -121 0
-86 -123 0
-87 -122 0
-87 -124 0
-88 -123 0
-88 -125 0
-89 -124 0
-89 -126 0
-90 -125 0
-90 -127 0
-91 -126 0
-91 -128 0
-92 -127 0
-92 -129 0
-93 -128 0
-93 -130 0
-94 -129 0
-94 -131 0
-95 -130 0
-95 -132 0
-96 -131 0
-85 -134 0
-86 -133 0
-86 -135 0
-87 -134 0
-87 -136 0
-88 -135 0
-88 -137 0
-89 -136 0
-89 -138 0
-90 -137 0
-90 -139 0
-91 -138 0
-91 -140 0
-92 -139 0
-92 -141 0
-93 -140 0
-93 -142 0
-94 -141 0
-94 -143 0
-95 -142 0
-95 -144 0
-96 -143 0
-97 -122 0
-98 -121 0
-98 -123 0
-99 -122 0
-99 -124 0
-100 -123 0
-100 -125 0
-101 -124 0
-101 -126 0
-102 -125 0
-102 -127 0
-103 -126 0
-103 -128 0
-104 -127 0
-104 -129 0
-105 -128 0
-105 -130 0
-106 -129 0
-106 -131 0
-107 -130 0
-107 -132 0
-108 -131 0
-97 -134 0
-98 -133 0
-98 -135 0
-99 -134 0
-99 -136 0
-100 -135 0
-100 -137 0
-101 -136 0
-101 -138 0
-102 -137 0
-102 -139 0
-103 -138 0
-103 -140 0
-104 -139 0
-104 -141 0
-105 -140 0
-105 -142 0
-106 -141 0
-106 -143 0
-107 -142 0
-107 -144 0
-108 -143 0
-109 -134 0
-110 -133 0
-110 -135 0
-111 -134 0
-111 -136 0
-112 -135 0
-112 -137 0
-113 -136 0
-113 -138 0
-114 -137 0
-114 -139 0
-115 -138 0
-115 -140 0
-116 -139 0
-116 -141 0
-117 -140 0
-117 -142 0
-118 -141 0
-118 -143 0
-119 -142 0
-119 -144 0
-120 -143 0
